WARNING: for repeatability, setting FPU to use double precision
============================[ Problem Statistics ]=============================
|                                                                             |
|  Number of variables:        230178                                         |
|  Number of clauses:          533133                                         |
|  Parse time:                   0.17 s                                       |
|                                                                             |
============================[ Search Statistics ]==============================
| Conflicts |          ORIGINAL         |          LEARNT          | Progress |
|           |    Vars  Clauses Literals |    Limit  Clauses Lit/Cl |          |
===============================================================================
|       100 |  127142   511050  1148442 |   187385      100      9 | 44.764 % |
|       250 |  127142   511050  1148442 |   206123      250     11 | 44.764 % |
|       475 |  127142   511050  1148442 |   226735      475     21 | 44.764 % |
===============================================================================
restarts              : 6
conflicts             : 656            (1439 /sec)
decisions             : 11809          (0.00 % random) (25895 /sec)
propagations          : 1951343        (4278998 /sec)
conflict literals     : 14260          (7.42 % deleted)
Memory used           : 57.00 MB
CPU time              : 0.456028 s

SATISFIABLE
